# Euclidean grid test (optional)
# 2 facilities, 3 customers
2 3
1 1
5 5
0 0  1 1
3 4  1 1
4 3  5 5
